15000
3
34
49
50
53
100
1
13
14
16
23
25
27
32
55
56
85
87
93
95
9
11
15
21
22
24
30
36
42
45
47
48
58
62
64
68
70
72
73
75
80
82
88
91
92
99
10
17
35
38
39
44
52
54
57
61
63
66
69
79
81
83
84
96
97
2
4
18
20
26
37
40
43
46
51
59
65
74
77
78
86
89
6
12
19
31
33
41
71
76
90
94
98
5
7
28
29
60
67
8
